p cnf 20 20
-9 13 -10 0
20 5 3 0
-6 -15 19 0
-18 5 19 0
-17 -8 4 0
-8 -2 -17 0
12 1 -14 0
-3 -5 -14 0
14 6 -4 0
12 -14 -8 0
-2 12 -14 0
13 -8 5 0
16 -9 12 0
19 17 -5 0
-5 13 19 0
-1 -17 -15 0
-20 -15 -7 0
-7 4 -16 0
4 8 -9 0
12 -10 -14 0
